instances/knapsack/discrete_knapsack_uncertainty/knapsack_140_2.lp
\ Model knapsack_140_2
\ LP format - for model browsing. Use MPS format to capture full model detail.
\ Signature: 0x9977cb8fbdb63468
Minimize
  - 37 x[0] - 18 x[1] - 79 x[2] - 55 x[3] - 77 x[4] - 92 x[5] - 81 x[6]
   - 39 x[7] - 6 x[8] - 30 x[9] - 10 x[10] - 18 x[11] - 50 x[12] - 57 x[13]
   - 78 x[14] - 47 x[15] - 57 x[16] - 49 x[17] - 82 x[18] - 45 x[19]
   - 65 x[20] - 10 x[21] - 71 x[22] - 7 x[23] - 16 x[24] - 54 x[25]
   - 79 x[26] - 55 x[27] - 81 x[28] - 92 x[29] - 88 x[30] - 63 x[31]
   - 19 x[32] - 62 x[33] - 35 x[34] - 76 x[35] - 88 x[36] - 70 x[37]
   - 70 x[38] - 83 x[39] - 39 x[40] - 93 x[41] - 77 x[42] - 74 x[43]
   - 10 x[44] - 30 x[45] - 4 x[46] - 64 x[47] - 24 x[48] - 37 x[49]
   - 78 x[50] - 50 x[51] - 66 x[52] - 8 x[53] - 99 x[54] - 13 x[55]
   - 46 x[56] - 91 x[57] - 31 x[58] - 66 x[59] - 79 x[60] - 93 x[61]
   - 49 x[62] - 97 x[63] - 66 x[64] - 36 x[65] - 96 x[66] - 93 x[67]
   - 4 x[68] - 97 x[69] - 84 x[70] - 30 x[71] - 72 x[72] - 13 x[73]
   - 62 x[74] - 61 x[75] - 97 x[76] - 40 x[77] - 67 x[78] - 79 x[79]
   - 86 x[80] - 77 x[81] - 53 x[82] - 77 x[83] - 4 x[84] - 12 x[85]
   - 25 x[86] - 54 x[87] - 3 x[88] - 78 x[89] - 65 x[90] - 61 x[91]
   - 13 x[92] - 64 x[93] - 95 x[94] - 10 x[95] - 24 x[96] - 91 x[97]
   - 100 x[98] - 72 x[99] - 20 x[100] - 5 x[101] - 2 x[102] - 9 x[103]
   - 86 x[104] - 82 x[105] - 41 x[106] - 60 x[107] - 29 x[108] - 8 x[109]
   - 89 x[110] - 89 x[111] - 21 x[112] - 47 x[113] - 69 x[114] - 84 x[115]
   - 2 x[116] - 60 x[117] - 93 x[118] - 30 x[119] - 9 x[120] - 86 x[121]
   - 29 x[122] - 78 x[123] - 59 x[124] - 76 x[125] - 8 x[126] - 57 x[127]
   - 91 x[128] - 16 x[129] - 46 x[130] - 70 x[131] - 15 x[132] - 34 x[133]
   - x[134] - 19 x[135] - 20 x[136] - 57 x[137] - 98 x[138] - 65 x[139]
Subject To
 primal_upper: 79 x[0] + 91 x[1] + 21 x[2] + 22 x[3] + 79 x[4] + 73 x[5]
   + 92 x[6] + 95 x[7] + 100 x[8] + 49 x[9] + 75 x[10] + 54 x[11]
   + 75 x[12] + 79 x[13] + 100 x[14] + 88 x[15] + 4 x[16] + 47 x[17]
   + 24 x[18] + 41 x[19] + 40 x[20] + 79 x[21] + 15 x[22] + 18 x[23]
   + 28 x[24] + 83 x[25] + 77 x[26] + 75 x[27] + 9 x[28] + 54 x[29]
   + 37 x[30] + 19 x[31] + 3 x[32] + 52 x[33] + 55 x[34] + 20 x[35]
   + 47 x[36] + 20 x[37] + 3 x[38] + 82 x[39] + 38 x[40] + 25 x[41]
   + 29 x[42] + 9 x[43] + 94 x[44] + 42 x[45] + 25 x[46] + 9 x[47]
   + 26 x[48] + 71 x[49] + 94 x[50] + 43 x[51] + 92 x[52] + 79 x[53]
   + 56 x[54] + 71 x[55] + 88 x[56] + 54 x[57] + 7 x[58] + 41 x[59]
   + 44 x[60] + 54 x[61] + 43 x[62] + 42 x[63] + 23 x[64] + 83 x[65]
   + 44 x[66] + 90 x[67] + 51 x[68] + 41 x[69] + 9 x[70] + 69 x[71]
   + 97 x[72] + 58 x[73] + 47 x[74] + 88 x[75] + 54 x[76] + 46 x[77]
   + 20 x[78] + 18 x[79] + 89 x[80] + 57 x[81] + 18 x[82] + 93 x[83]
   + 69 x[84] + 77 x[85] + 99 x[86] + 35 x[87] + 9 x[88] + 22 x[89]
   + 16 x[90] + 56 x[91] + 24 x[92] + 67 x[93] + 87 x[94] + 36 x[95]
   + 44 x[96] + 12 x[97] + 27 x[98] + 83 x[99] + 100 x[100] + 95 x[101]
   + 21 x[102] + 79 x[103] + 80 x[104] + 77 x[105] + 90 x[106] + 98 x[107]
   + 50 x[108] + 48 x[109] + 2 x[110] + 34 x[111] + 44 x[112] + 44 x[113]
   + 64 x[114] + 42 x[115] + 42 x[116] + 64 x[117] + 92 x[118] + 24 x[119]
   + 31 x[120] + 76 x[121] + 79 x[122] + 54 x[123] + 100 x[124] + 10 x[125]
   + 79 x[126] + 83 x[127] + 94 x[128] + 30 x[129] + 21 x[130] + 48 x[131]
   + 82 x[132] + 87 x[133] + 48 x[134] + 5 x[135] + 84 x[136] + 66 x[137]
   + 77 x[138] + 43 x[139] + 7.9 r[0] + 9.1 r[1] + 2.1 r[2] + 2.2 r[3]
   + 7.9 r[4] + 7.3 r[5] + 9.2 r[6] + 9.5 r[7] + 10 r[8] + 4.9 r[9]
   + 7.5 r[10] + 5.4 r[11] + 7.5 r[12] + 7.9 r[13] + 10 r[14] + 8.8 r[15]
   + 0.4 r[16] + 4.7 r[17] + 2.4 r[18] + 4.1 r[19] + 4 r[20] + 7.9 r[21]
   + 1.5 r[22] + 1.8 r[23] + 2.8 r[24] + 8.3 r[25] + 7.7 r[26] + 7.5 r[27]
   + 0.9 r[28] + 5.4 r[29] + 3.7 r[30] + 1.9 r[31] + 0.3 r[32] + 5.2 r[33]
   + 5.5 r[34] + 2 r[35] + 4.7 r[36] + 2 r[37] + 0.3 r[38] + 8.2 r[39]
   + 3.8 r[40] + 2.5 r[41] + 2.9 r[42] + 0.9 r[43] + 9.4 r[44] + 4.2 r[45]
   + 2.5 r[46] + 0.9 r[47] + 2.6 r[48] + 7.1 r[49] + 9.4 r[50] + 4.3 r[51]
   + 9.2 r[52] + 7.9 r[53] + 5.6 r[54] + 7.1 r[55] + 8.8 r[56] + 5.4 r[57]
   + 0.7 r[58] + 4.1 r[59] + 4.4 r[60] + 5.4 r[61] + 4.3 r[62] + 4.2 r[63]
   + 2.3 r[64] + 8.3 r[65] + 4.4 r[66] + 9 r[67] + 5.1 r[68] + 4.1 r[69]
   + 0.9 r[70] + 6.9 r[71] + 9.7 r[72] + 5.8 r[73] + 4.7 r[74] + 8.8 r[75]
   + 5.4 r[76] + 4.6 r[77] + 2 r[78] + 1.8 r[79] + 8.9 r[80] + 5.7 r[81]
   + 1.8 r[82] + 9.3 r[83] + 6.9 r[84] + 7.7 r[85] + 9.9 r[86] + 3.5 r[87]
   + 0.9 r[88] + 2.2 r[89] + 1.6 r[90] + 5.6 r[91] + 2.4 r[92] + 6.7 r[93]
   + 8.7 r[94] + 3.6 r[95] + 4.4 r[96] + 1.2 r[97] + 2.7 r[98] + 8.3 r[99]
   + 10 r[100] + 9.5 r[101] + 2.1 r[102] + 7.9 r[103] + 8 r[104]
   + 7.7 r[105] + 9 r[106] + 9.8 r[107] + 5 r[108] + 4.8 r[109]
   + 0.2 r[110] + 3.4 r[111] + 4.4 r[112] + 4.4 r[113] + 6.4 r[114]
   + 4.2 r[115] + 4.2 r[116] + 6.4 r[117] + 9.2 r[118] + 2.4 r[119]
   + 3.1 r[120] + 7.6 r[121] + 7.9 r[122] + 5.4 r[123] + 10 r[124] + r[125]
   + 7.9 r[126] + 8.3 r[127] + 9.4 r[128] + 3 r[129] + 2.1 r[130]
   + 4.8 r[131] + 8.2 r[132] + 8.7 r[133] + 4.8 r[134] + 0.5 r[135]
   + 8.4 r[136] + 6.6 r[137] + 7.7 r[138] + 4.3 r[139] <= 716
 primal_lower: 1.164308029782043 x[0] + 3.798941388683778 x[1]
   + 3.581116566068538 x[2] + 3.322675731555573 x[3]
   + 0.0977825844104949 x[4] + 0.1899377540241914 x[5]
   + 1.176346671559784 x[6] + 0.4948719690602066 x[7]
   + 3.383654611161221 x[8] + 4.637318185919038 x[9]
   + 4.099655036154113 x[10] + 4.92445803363375 x[11]
   + 2.836649153564621 x[12] + 0.2752623537911942 x[13]
   + 3.668669280894399 x[14] + 3.290375561198986 x[15]
   + 1.273125233072915 x[16] + 0.4255480370971515 x[17]
   + 4.533114284547441 x[18] + 1.354522352809074 x[19]
   + 4.979865387766071 x[20] + 2.963783298745825 x[21]
   + 2.355638506155493 x[22] + 0.4945564084727315 x[23]
   + 2.864561546567673 x[24] + 4.858958153443344 x[25]
   + 3.680984593236535 x[26] + 3.523578365588818 x[27]
   + 5.032282870954295 x[28] + 1.290528803972804 x[29]
   + 1.065357391388755 x[30] + 1.894412192602418 x[31]
   + 2.66525190181954 x[32] + 4.571706784890599 x[33]
   + 0.8607092586951879 x[34] + 2.586539566571312 x[35]
   + 4.280070672405861 x[36] + 3.845833079261681 x[37]
   + 3.034919255517698 x[38] + 2.043032183459203 x[39]
   + 4.573385356650564 x[40] + 3.361905717016415 x[41]
   + 3.81513105053563 x[42] + 1.157237046848009 x[43]
   + 4.484660416457466 x[44] + 4.915662263868414 x[45]
   + 4.792304069872707 x[46] + 5.080785353259445 x[47]
   + 4.745721271875937 x[48] + 5.090872684939864 x[49]
   + 3.683976996093626 x[50] + 4.024815732367008 x[51]
   + 1.552301969995388 x[52] + 4.864747015660322 x[53]
   + 3.550682218066852 x[54] + 2.880892364068343 x[55]
   + 1.011697445900577 x[56] + 4.631935419002617 x[57]
   + 4.374187699927722 x[58] + 4.804285871146355 x[59]
   + 2.633151738624671 x[60] + 0.3364640565534636 x[61]
   + 2.097207342716021 x[62] + 5.109120367278535 x[63]
   + 3.915924220967545 x[64] + 2.144906222161046 x[65]
   + 4.105014799659024 x[66] + 0.5577983348309727 x[67]
   + 2.196190166342174 x[68] + 5.134310994447326 x[69]
   + 0.8749425700699207 x[70] + 3.258119456875594 x[71]
   + 4.484049454089679 x[72] + 1.700106913028717 x[73]
   + 3.430940703561991 x[74] + 3.386109964404761 x[75]
   + 3.819164074991074 x[76] + 2.905726887923337 x[77]
   + 0.6089158432057382 x[78] + 4.223441446667046 x[79]
   + 3.005004577264287 x[80] + 0.4273471576367951 x[81]
   + 4.713849711145307 x[82] + 4.88165704050185 x[83]
   + 1.749388683312675 x[84] + 4.91291007309199 x[85]
   + 2.323947873186496 x[86] + 3.203803996074699 x[87]
   + 0.9445369232116584 x[88] + 2.622746032079929 x[89]
   + 2.509895374729773 x[90] + 5.043882500333296 x[91]
   + 4.109381618707713 x[92] + 1.54063630388449 x[93]
   + 4.359903082505662 x[94] + 3.278437209348381 x[95]
   + 2.193941283931655 x[96] + 1.746292325434838 x[97]
   + 1.968897595603367 x[98] + 4.225897059319072 x[99]
   + 4.940916453190637 x[100] + 4.44435128002652 x[101]
   + 3.291548116786334 x[102] + 1.573224455812078 x[103]
   + 4.526947404020845 x[104] + 3.735934406904325 x[105]
   + 2.050045870986919 x[106] + 4.533570042244364 x[107]
   + 2.626947134146533 x[108] + 2.547199304949263 x[109]
   + 3.955788006825257 x[110] + 3.730859891565087 x[111]
   + 3.362106439669929 x[112] + 5.077817726431467 x[113]
   + 2.842091287943312 x[114] + 0.6426853543484968 x[115]
   + 0.3440328554553927 x[116] + 1.186591409079387 x[117]
   + 3.42470297115589 x[118] + 3.068035887666746 x[119]
   + 2.273723647801826 x[120] + 3.114537233646713 x[121]
   + 3.047731794551951 x[122] + 4.503496352734967 x[123]
   + 2.522826998475598 x[124] + 1.786292961356029 x[125]
   + 4.120136908266906 x[126] + 4.880694291332891 x[127]
   + 4.014865487094197 x[128] + 3.312639952899687 x[129]
   + 2.334088923554221 x[130] + 3.423678189724887 x[131]
   + 1.116396924060211 x[132] + 1.936379951272807 x[133]
   + 3.730821725183299 x[134] + 3.831565947905544 x[135]
   + 3.549369128271223 x[136] + 1.611543966218064 x[137]
   + 0.4118180324706901 x[138] + 0.0177202780713625 x[139] + 85 u[0]
   + 41 u[1] + 51 u[2] + 60 u[3] + 9 u[4] + 95 u[5] + 42 u[6] + 97 u[7]
   + 98 u[8] + 79 u[9] + 97 u[10] + 96 u[11] + 97 u[12] + 61 u[13]
   + 62 u[14] + 22 u[15] + 26 u[16] + 69 u[17] + 22 u[18] + 99 u[19]
   + 74 u[20] + 29 u[21] + 21 u[22] + 60 u[23] + 98 u[24] + 41 u[25]
   + 55 u[26] + 85 u[27] + 31 u[28] + 92 u[29] + 23 u[30] + 29 u[31]
   + 25 u[32] + 98 u[33] + 89 u[34] + 54 u[35] + u[36] + 66 u[37]
   + 25 u[38] + 24 u[39] + 40 u[40] + 23 u[41] + 79 u[42] + 99 u[43]
   + 16 u[44] + 100 u[45] + 39 u[46] + 91 u[47] + 84 u[48] + 77 u[49]
   + 84 u[50] + 93 u[51] + 90 u[52] + 25 u[53] + 10 u[54] + 49 u[55]
   + 6 u[56] + 84 u[57] + 53 u[58] + 83 u[59] + 34 u[60] + 56 u[61]
   + 61 u[62] + 52 u[63] + 13 u[64] + 29 u[65] + 2 u[66] + 84 u[67]
   + 77 u[68] + 83 u[69] + 31 u[70] + 91 u[71] + 55 u[72] + 56 u[73]
   + 97 u[74] + 50 u[75] + 40 u[76] + 44 u[77] + 70 u[78] + 20 u[79]
   + 99 u[80] + 27 u[81] + 20 u[82] + 87 u[83] + 79 u[84] + 43 u[85]
   + 61 u[86] + 73 u[87] + 35 u[88] + 72 u[89] + 94 u[90] + 30 u[91]
   + 62 u[92] + 29 u[93] + 77 u[94] + 86 u[95] + 70 u[96] + 42 u[97]
   + 61 u[98] + 97 u[99] + 62 u[100] + 93 u[101] + 15 u[102] + 9 u[103]
   + 2 u[104] + 27 u[105] + 16 u[106] + 12 u[107] + 4 u[108] + 70 u[109]
   + 48 u[110] + 28 u[111] + 6 u[112] + 78 u[113] + 70 u[114] + 60 u[115]
   + 52 u[116] + 22 u[117] + 94 u[118] + 30 u[119] + 9 u[120] + 26 u[121]
   + 61 u[122] + 16 u[123] + 70 u[124] + 28 u[125] + 89 u[126] + u[127]
   + 40 u[128] + 76 u[129] + 39 u[130] + 34 u[131] + 44 u[132] + 45 u[133]
   + 54 u[134] + 63 u[135] + 38 u[136] + 100 u[137] + 35 u[138] + 65 u[139]
   <= 17612
 mccormick1[0]: - u[0] + r[0] <= 0
 mccormick1[1]: - u[1] + r[1] <= 0
 mccormick1[2]: - u[2] + r[2] <= 0
 mccormick1[3]: - u[3] + r[3] <= 0
 mccormick1[4]: - u[4] + r[4] <= 0
 mccormick1[5]: - u[5] + r[5] <= 0
 mccormick1[6]: - u[6] + r[6] <= 0
 mccormick1[7]: - u[7] + r[7] <= 0
 mccormick1[8]: - u[8] + r[8] <= 0
 mccormick1[9]: - u[9] + r[9] <= 0
 mccormick1[10]: - u[10] + r[10] <= 0
 mccormick1[11]: - u[11] + r[11] <= 0
 mccormick1[12]: - u[12] + r[12] <= 0
 mccormick1[13]: - u[13] + r[13] <= 0
 mccormick1[14]: - u[14] + r[14] <= 0
 mccormick1[15]: - u[15] + r[15] <= 0
 mccormick1[16]: - u[16] + r[16] <= 0
 mccormick1[17]: - u[17] + r[17] <= 0
 mccormick1[18]: - u[18] + r[18] <= 0
 mccormick1[19]: - u[19] + r[19] <= 0
 mccormick1[20]: - u[20] + r[20] <= 0
 mccormick1[21]: - u[21] + r[21] <= 0
 mccormick1[22]: - u[22] + r[22] <= 0
 mccormick1[23]: - u[23] + r[23] <= 0
 mccormick1[24]: - u[24] + r[24] <= 0
 mccormick1[25]: - u[25] + r[25] <= 0
 mccormick1[26]: - u[26] + r[26] <= 0
 mccormick1[27]: - u[27] + r[27] <= 0
 mccormick1[28]: - u[28] + r[28] <= 0
 mccormick1[29]: - u[29] + r[29] <= 0
 mccormick1[30]: - u[30] + r[30] <= 0
 mccormick1[31]: - u[31] + r[31] <= 0
 mccormick1[32]: - u[32] + r[32] <= 0
 mccormick1[33]: - u[33] + r[33] <= 0
 mccormick1[34]: - u[34] + r[34] <= 0
 mccormick1[35]: - u[35] + r[35] <= 0
 mccormick1[36]: - u[36] + r[36] <= 0
 mccormick1[37]: - u[37] + r[37] <= 0
 mccormick1[38]: - u[38] + r[38] <= 0
 mccormick1[39]: - u[39] + r[39] <= 0
 mccormick1[40]: - u[40] + r[40] <= 0
 mccormick1[41]: - u[41] + r[41] <= 0
 mccormick1[42]: - u[42] + r[42] <= 0
 mccormick1[43]: - u[43] + r[43] <= 0
 mccormick1[44]: - u[44] + r[44] <= 0
 mccormick1[45]: - u[45] + r[45] <= 0
 mccormick1[46]: - u[46] + r[46] <= 0
 mccormick1[47]: - u[47] + r[47] <= 0
 mccormick1[48]: - u[48] + r[48] <= 0
 mccormick1[49]: - u[49] + r[49] <= 0
 mccormick1[50]: - u[50] + r[50] <= 0
 mccormick1[51]: - u[51] + r[51] <= 0
 mccormick1[52]: - u[52] + r[52] <= 0
 mccormick1[53]: - u[53] + r[53] <= 0
 mccormick1[54]: - u[54] + r[54] <= 0
 mccormick1[55]: - u[55] + r[55] <= 0
 mccormick1[56]: - u[56] + r[56] <= 0
 mccormick1[57]: - u[57] + r[57] <= 0
 mccormick1[58]: - u[58] + r[58] <= 0
 mccormick1[59]: - u[59] + r[59] <= 0
 mccormick1[60]: - u[60] + r[60] <= 0
 mccormick1[61]: - u[61] + r[61] <= 0
 mccormick1[62]: - u[62] + r[62] <= 0
 mccormick1[63]: - u[63] + r[63] <= 0
 mccormick1[64]: - u[64] + r[64] <= 0
 mccormick1[65]: - u[65] + r[65] <= 0
 mccormick1[66]: - u[66] + r[66] <= 0
 mccormick1[67]: - u[67] + r[67] <= 0
 mccormick1[68]: - u[68] + r[68] <= 0
 mccormick1[69]: - u[69] + r[69] <= 0
 mccormick1[70]: - u[70] + r[70] <= 0
 mccormick1[71]: - u[71] + r[71] <= 0
 mccormick1[72]: - u[72] + r[72] <= 0
 mccormick1[73]: - u[73] + r[73] <= 0
 mccormick1[74]: - u[74] + r[74] <= 0
 mccormick1[75]: - u[75] + r[75] <= 0
 mccormick1[76]: - u[76] + r[76] <= 0
 mccormick1[77]: - u[77] + r[77] <= 0
 mccormick1[78]: - u[78] + r[78] <= 0
 mccormick1[79]: - u[79] + r[79] <= 0
 mccormick1[80]: - u[80] + r[80] <= 0
 mccormick1[81]: - u[81] + r[81] <= 0
 mccormick1[82]: - u[82] + r[82] <= 0
 mccormick1[83]: - u[83] + r[83] <= 0
 mccormick1[84]: - u[84] + r[84] <= 0
 mccormick1[85]: - u[85] + r[85] <= 0
 mccormick1[86]: - u[86] + r[86] <= 0
 mccormick1[87]: - u[87] + r[87] <= 0
 mccormick1[88]: - u[88] + r[88] <= 0
 mccormick1[89]: - u[89] + r[89] <= 0
 mccormick1[90]: - u[90] + r[90] <= 0
 mccormick1[91]: - u[91] + r[91] <= 0
 mccormick1[92]: - u[92] + r[92] <= 0
 mccormick1[93]: - u[93] + r[93] <= 0
 mccormick1[94]: - u[94] + r[94] <= 0
 mccormick1[95]: - u[95] + r[95] <= 0
 mccormick1[96]: - u[96] + r[96] <= 0
 mccormick1[97]: - u[97] + r[97] <= 0
 mccormick1[98]: - u[98] + r[98] <= 0
 mccormick1[99]: - u[99] + r[99] <= 0
 mccormick1[100]: - u[100] + r[100] <= 0
 mccormick1[101]: - u[101] + r[101] <= 0
 mccormick1[102]: - u[102] + r[102] <= 0
 mccormick1[103]: - u[103] + r[103] <= 0
 mccormick1[104]: - u[104] + r[104] <= 0
 mccormick1[105]: - u[105] + r[105] <= 0
 mccormick1[106]: - u[106] + r[106] <= 0
 mccormick1[107]: - u[107] + r[107] <= 0
 mccormick1[108]: - u[108] + r[108] <= 0
 mccormick1[109]: - u[109] + r[109] <= 0
 mccormick1[110]: - u[110] + r[110] <= 0
 mccormick1[111]: - u[111] + r[111] <= 0
 mccormick1[112]: - u[112] + r[112] <= 0
 mccormick1[113]: - u[113] + r[113] <= 0
 mccormick1[114]: - u[114] + r[114] <= 0
 mccormick1[115]: - u[115] + r[115] <= 0
 mccormick1[116]: - u[116] + r[116] <= 0
 mccormick1[117]: - u[117] + r[117] <= 0
 mccormick1[118]: - u[118] + r[118] <= 0
 mccormick1[119]: - u[119] + r[119] <= 0
 mccormick1[120]: - u[120] + r[120] <= 0
 mccormick1[121]: - u[121] + r[121] <= 0
 mccormick1[122]: - u[122] + r[122] <= 0
 mccormick1[123]: - u[123] + r[123] <= 0
 mccormick1[124]: - u[124] + r[124] <= 0
 mccormick1[125]: - u[125] + r[125] <= 0
 mccormick1[126]: - u[126] + r[126] <= 0
 mccormick1[127]: - u[127] + r[127] <= 0
 mccormick1[128]: - u[128] + r[128] <= 0
 mccormick1[129]: - u[129] + r[129] <= 0
 mccormick1[130]: - u[130] + r[130] <= 0
 mccormick1[131]: - u[131] + r[131] <= 0
 mccormick1[132]: - u[132] + r[132] <= 0
 mccormick1[133]: - u[133] + r[133] <= 0
 mccormick1[134]: - u[134] + r[134] <= 0
 mccormick1[135]: - u[135] + r[135] <= 0
 mccormick1[136]: - u[136] + r[136] <= 0
 mccormick1[137]: - u[137] + r[137] <= 0
 mccormick1[138]: - u[138] + r[138] <= 0
 mccormick1[139]: - u[139] + r[139] <= 0
 mccormick2[0]: - x[0] + r[0] <= 0
 mccormick2[1]: - x[1] + r[1] <= 0
 mccormick2[2]: - x[2] + r[2] <= 0
 mccormick2[3]: - x[3] + r[3] <= 0
 mccormick2[4]: - x[4] + r[4] <= 0
 mccormick2[5]: - x[5] + r[5] <= 0
 mccormick2[6]: - x[6] + r[6] <= 0
 mccormick2[7]: - x[7] + r[7] <= 0
 mccormick2[8]: - x[8] + r[8] <= 0
 mccormick2[9]: - x[9] + r[9] <= 0
 mccormick2[10]: - x[10] + r[10] <= 0
 mccormick2[11]: - x[11] + r[11] <= 0
 mccormick2[12]: - x[12] + r[12] <= 0
 mccormick2[13]: - x[13] + r[13] <= 0
 mccormick2[14]: - x[14] + r[14] <= 0
 mccormick2[15]: - x[15] + r[15] <= 0
 mccormick2[16]: - x[16] + r[16] <= 0
 mccormick2[17]: - x[17] + r[17] <= 0
 mccormick2[18]: - x[18] + r[18] <= 0
 mccormick2[19]: - x[19] + r[19] <= 0
 mccormick2[20]: - x[20] + r[20] <= 0
 mccormick2[21]: - x[21] + r[21] <= 0
 mccormick2[22]: - x[22] + r[22] <= 0
 mccormick2[23]: - x[23] + r[23] <= 0
 mccormick2[24]: - x[24] + r[24] <= 0
 mccormick2[25]: - x[25] + r[25] <= 0
 mccormick2[26]: - x[26] + r[26] <= 0
 mccormick2[27]: - x[27] + r[27] <= 0
 mccormick2[28]: - x[28] + r[28] <= 0
 mccormick2[29]: - x[29] + r[29] <= 0
 mccormick2[30]: - x[30] + r[30] <= 0
 mccormick2[31]: - x[31] + r[31] <= 0
 mccormick2[32]: - x[32] + r[32] <= 0
 mccormick2[33]: - x[33] + r[33] <= 0
 mccormick2[34]: - x[34] + r[34] <= 0
 mccormick2[35]: - x[35] + r[35] <= 0
 mccormick2[36]: - x[36] + r[36] <= 0
 mccormick2[37]: - x[37] + r[37] <= 0
 mccormick2[38]: - x[38] + r[38] <= 0
 mccormick2[39]: - x[39] + r[39] <= 0
 mccormick2[40]: - x[40] + r[40] <= 0
 mccormick2[41]: - x[41] + r[41] <= 0
 mccormick2[42]: - x[42] + r[42] <= 0
 mccormick2[43]: - x[43] + r[43] <= 0
 mccormick2[44]: - x[44] + r[44] <= 0
 mccormick2[45]: - x[45] + r[45] <= 0
 mccormick2[46]: - x[46] + r[46] <= 0
 mccormick2[47]: - x[47] + r[47] <= 0
 mccormick2[48]: - x[48] + r[48] <= 0
 mccormick2[49]: - x[49] + r[49] <= 0
 mccormick2[50]: - x[50] + r[50] <= 0
 mccormick2[51]: - x[51] + r[51] <= 0
 mccormick2[52]: - x[52] + r[52] <= 0
 mccormick2[53]: - x[53] + r[53] <= 0
 mccormick2[54]: - x[54] + r[54] <= 0
 mccormick2[55]: - x[55] + r[55] <= 0
 mccormick2[56]: - x[56] + r[56] <= 0
 mccormick2[57]: - x[57] + r[57] <= 0
 mccormick2[58]: - x[58] + r[58] <= 0
 mccormick2[59]: - x[59] + r[59] <= 0
 mccormick2[60]: - x[60] + r[60] <= 0
 mccormick2[61]: - x[61] + r[61] <= 0
 mccormick2[62]: - x[62] + r[62] <= 0
 mccormick2[63]: - x[63] + r[63] <= 0
 mccormick2[64]: - x[64] + r[64] <= 0
 mccormick2[65]: - x[65] + r[65] <= 0
 mccormick2[66]: - x[66] + r[66] <= 0
 mccormick2[67]: - x[67] + r[67] <= 0
 mccormick2[68]: - x[68] + r[68] <= 0
 mccormick2[69]: - x[69] + r[69] <= 0
 mccormick2[70]: - x[70] + r[70] <= 0
 mccormick2[71]: - x[71] + r[71] <= 0
 mccormick2[72]: - x[72] + r[72] <= 0
 mccormick2[73]: - x[73] + r[73] <= 0
 mccormick2[74]: - x[74] + r[74] <= 0
 mccormick2[75]: - x[75] + r[75] <= 0
 mccormick2[76]: - x[76] + r[76] <= 0
 mccormick2[77]: - x[77] + r[77] <= 0
 mccormick2[78]: - x[78] + r[78] <= 0
 mccormick2[79]: - x[79] + r[79] <= 0
 mccormick2[80]: - x[80] + r[80] <= 0
 mccormick2[81]: - x[81] + r[81] <= 0
 mccormick2[82]: - x[82] + r[82] <= 0
 mccormick2[83]: - x[83] + r[83] <= 0
 mccormick2[84]: - x[84] + r[84] <= 0
 mccormick2[85]: - x[85] + r[85] <= 0
 mccormick2[86]: - x[86] + r[86] <= 0
 mccormick2[87]: - x[87] + r[87] <= 0
 mccormick2[88]: - x[88] + r[88] <= 0
 mccormick2[89]: - x[89] + r[89] <= 0
 mccormick2[90]: - x[90] + r[90] <= 0
 mccormick2[91]: - x[91] + r[91] <= 0
 mccormick2[92]: - x[92] + r[92] <= 0
 mccormick2[93]: - x[93] + r[93] <= 0
 mccormick2[94]: - x[94] + r[94] <= 0
 mccormick2[95]: - x[95] + r[95] <= 0
 mccormick2[96]: - x[96] + r[96] <= 0
 mccormick2[97]: - x[97] + r[97] <= 0
 mccormick2[98]: - x[98] + r[98] <= 0
 mccormick2[99]: - x[99] + r[99] <= 0
 mccormick2[100]: - x[100] + r[100] <= 0
 mccormick2[101]: - x[101] + r[101] <= 0
 mccormick2[102]: - x[102] + r[102] <= 0
 mccormick2[103]: - x[103] + r[103] <= 0
 mccormick2[104]: - x[104] + r[104] <= 0
 mccormick2[105]: - x[105] + r[105] <= 0
 mccormick2[106]: - x[106] + r[106] <= 0
 mccormick2[107]: - x[107] + r[107] <= 0
 mccormick2[108]: - x[108] + r[108] <= 0
 mccormick2[109]: - x[109] + r[109] <= 0
 mccormick2[110]: - x[110] + r[110] <= 0
 mccormick2[111]: - x[111] + r[111] <= 0
 mccormick2[112]: - x[112] + r[112] <= 0
 mccormick2[113]: - x[113] + r[113] <= 0
 mccormick2[114]: - x[114] + r[114] <= 0
 mccormick2[115]: - x[115] + r[115] <= 0
 mccormick2[116]: - x[116] + r[116] <= 0
 mccormick2[117]: - x[117] + r[117] <= 0
 mccormick2[118]: - x[118] + r[118] <= 0
 mccormick2[119]: - x[119] + r[119] <= 0
 mccormick2[120]: - x[120] + r[120] <= 0
 mccormick2[121]: - x[121] + r[121] <= 0
 mccormick2[122]: - x[122] + r[122] <= 0
 mccormick2[123]: - x[123] + r[123] <= 0
 mccormick2[124]: - x[124] + r[124] <= 0
 mccormick2[125]: - x[125] + r[125] <= 0
 mccormick2[126]: - x[126] + r[126] <= 0
 mccormick2[127]: - x[127] + r[127] <= 0
 mccormick2[128]: - x[128] + r[128] <= 0
 mccormick2[129]: - x[129] + r[129] <= 0
 mccormick2[130]: - x[130] + r[130] <= 0
 mccormick2[131]: - x[131] + r[131] <= 0
 mccormick2[132]: - x[132] + r[132] <= 0
 mccormick2[133]: - x[133] + r[133] <= 0
 mccormick2[134]: - x[134] + r[134] <= 0
 mccormick2[135]: - x[135] + r[135] <= 0
 mccormick2[136]: - x[136] + r[136] <= 0
 mccormick2[137]: - x[137] + r[137] <= 0
 mccormick2[138]: - x[138] + r[138] <= 0
 mccormick2[139]: - x[139] + r[139] <= 0
 mccormick3[0]: x[0] + u[0] - r[0] <= 1
 mccormick3[1]: x[1] + u[1] - r[1] <= 1
 mccormick3[2]: x[2] + u[2] - r[2] <= 1
 mccormick3[3]: x[3] + u[3] - r[3] <= 1
 mccormick3[4]: x[4] + u[4] - r[4] <= 1
 mccormick3[5]: x[5] + u[5] - r[5] <= 1
 mccormick3[6]: x[6] + u[6] - r[6] <= 1
 mccormick3[7]: x[7] + u[7] - r[7] <= 1
 mccormick3[8]: x[8] + u[8] - r[8] <= 1
 mccormick3[9]: x[9] + u[9] - r[9] <= 1
 mccormick3[10]: x[10] + u[10] - r[10] <= 1
 mccormick3[11]: x[11] + u[11] - r[11] <= 1
 mccormick3[12]: x[12] + u[12] - r[12] <= 1
 mccormick3[13]: x[13] + u[13] - r[13] <= 1
 mccormick3[14]: x[14] + u[14] - r[14] <= 1
 mccormick3[15]: x[15] + u[15] - r[15] <= 1
 mccormick3[16]: x[16] + u[16] - r[16] <= 1
 mccormick3[17]: x[17] + u[17] - r[17] <= 1
 mccormick3[18]: x[18] + u[18] - r[18] <= 1
 mccormick3[19]: x[19] + u[19] - r[19] <= 1
 mccormick3[20]: x[20] + u[20] - r[20] <= 1
 mccormick3[21]: x[21] + u[21] - r[21] <= 1
 mccormick3[22]: x[22] + u[22] - r[22] <= 1
 mccormick3[23]: x[23] + u[23] - r[23] <= 1
 mccormick3[24]: x[24] + u[24] - r[24] <= 1
 mccormick3[25]: x[25] + u[25] - r[25] <= 1
 mccormick3[26]: x[26] + u[26] - r[26] <= 1
 mccormick3[27]: x[27] + u[27] - r[27] <= 1
 mccormick3[28]: x[28] + u[28] - r[28] <= 1
 mccormick3[29]: x[29] + u[29] - r[29] <= 1
 mccormick3[30]: x[30] + u[30] - r[30] <= 1
 mccormick3[31]: x[31] + u[31] - r[31] <= 1
 mccormick3[32]: x[32] + u[32] - r[32] <= 1
 mccormick3[33]: x[33] + u[33] - r[33] <= 1
 mccormick3[34]: x[34] + u[34] - r[34] <= 1
 mccormick3[35]: x[35] + u[35] - r[35] <= 1
 mccormick3[36]: x[36] + u[36] - r[36] <= 1
 mccormick3[37]: x[37] + u[37] - r[37] <= 1
 mccormick3[38]: x[38] + u[38] - r[38] <= 1
 mccormick3[39]: x[39] + u[39] - r[39] <= 1
 mccormick3[40]: x[40] + u[40] - r[40] <= 1
 mccormick3[41]: x[41] + u[41] - r[41] <= 1
 mccormick3[42]: x[42] + u[42] - r[42] <= 1
 mccormick3[43]: x[43] + u[43] - r[43] <= 1
 mccormick3[44]: x[44] + u[44] - r[44] <= 1
 mccormick3[45]: x[45] + u[45] - r[45] <= 1
 mccormick3[46]: x[46] + u[46] - r[46] <= 1
 mccormick3[47]: x[47] + u[47] - r[47] <= 1
 mccormick3[48]: x[48] + u[48] - r[48] <= 1
 mccormick3[49]: x[49] + u[49] - r[49] <= 1
 mccormick3[50]: x[50] + u[50] - r[50] <= 1
 mccormick3[51]: x[51] + u[51] - r[51] <= 1
 mccormick3[52]: x[52] + u[52] - r[52] <= 1
 mccormick3[53]: x[53] + u[53] - r[53] <= 1
 mccormick3[54]: x[54] + u[54] - r[54] <= 1
 mccormick3[55]: x[55] + u[55] - r[55] <= 1
 mccormick3[56]: x[56] + u[56] - r[56] <= 1
 mccormick3[57]: x[57] + u[57] - r[57] <= 1
 mccormick3[58]: x[58] + u[58] - r[58] <= 1
 mccormick3[59]: x[59] + u[59] - r[59] <= 1
 mccormick3[60]: x[60] + u[60] - r[60] <= 1
 mccormick3[61]: x[61] + u[61] - r[61] <= 1
 mccormick3[62]: x[62] + u[62] - r[62] <= 1
 mccormick3[63]: x[63] + u[63] - r[63] <= 1
 mccormick3[64]: x[64] + u[64] - r[64] <= 1
 mccormick3[65]: x[65] + u[65] - r[65] <= 1
 mccormick3[66]: x[66] + u[66] - r[66] <= 1
 mccormick3[67]: x[67] + u[67] - r[67] <= 1
 mccormick3[68]: x[68] + u[68] - r[68] <= 1
 mccormick3[69]: x[69] + u[69] - r[69] <= 1
 mccormick3[70]: x[70] + u[70] - r[70] <= 1
 mccormick3[71]: x[71] + u[71] - r[71] <= 1
 mccormick3[72]: x[72] + u[72] - r[72] <= 1
 mccormick3[73]: x[73] + u[73] - r[73] <= 1
 mccormick3[74]: x[74] + u[74] - r[74] <= 1
 mccormick3[75]: x[75] + u[75] - r[75] <= 1
 mccormick3[76]: x[76] + u[76] - r[76] <= 1
 mccormick3[77]: x[77] + u[77] - r[77] <= 1
 mccormick3[78]: x[78] + u[78] - r[78] <= 1
 mccormick3[79]: x[79] + u[79] - r[79] <= 1
 mccormick3[80]: x[80] + u[80] - r[80] <= 1
 mccormick3[81]: x[81] + u[81] - r[81] <= 1
 mccormick3[82]: x[82] + u[82] - r[82] <= 1
 mccormick3[83]: x[83] + u[83] - r[83] <= 1
 mccormick3[84]: x[84] + u[84] - r[84] <= 1
 mccormick3[85]: x[85] + u[85] - r[85] <= 1
 mccormick3[86]: x[86] + u[86] - r[86] <= 1
 mccormick3[87]: x[87] + u[87] - r[87] <= 1
 mccormick3[88]: x[88] + u[88] - r[88] <= 1
 mccormick3[89]: x[89] + u[89] - r[89] <= 1
 mccormick3[90]: x[90] + u[90] - r[90] <= 1
 mccormick3[91]: x[91] + u[91] - r[91] <= 1
 mccormick3[92]: x[92] + u[92] - r[92] <= 1
 mccormick3[93]: x[93] + u[93] - r[93] <= 1
 mccormick3[94]: x[94] + u[94] - r[94] <= 1
 mccormick3[95]: x[95] + u[95] - r[95] <= 1
 mccormick3[96]: x[96] + u[96] - r[96] <= 1
 mccormick3[97]: x[97] + u[97] - r[97] <= 1
 mccormick3[98]: x[98] + u[98] - r[98] <= 1
 mccormick3[99]: x[99] + u[99] - r[99] <= 1
 mccormick3[100]: x[100] + u[100] - r[100] <= 1
 mccormick3[101]: x[101] + u[101] - r[101] <= 1
 mccormick3[102]: x[102] + u[102] - r[102] <= 1
 mccormick3[103]: x[103] + u[103] - r[103] <= 1
 mccormick3[104]: x[104] + u[104] - r[104] <= 1
 mccormick3[105]: x[105] + u[105] - r[105] <= 1
 mccormick3[106]: x[106] + u[106] - r[106] <= 1
 mccormick3[107]: x[107] + u[107] - r[107] <= 1
 mccormick3[108]: x[108] + u[108] - r[108] <= 1
 mccormick3[109]: x[109] + u[109] - r[109] <= 1
 mccormick3[110]: x[110] + u[110] - r[110] <= 1
 mccormick3[111]: x[111] + u[111] - r[111] <= 1
 mccormick3[112]: x[112] + u[112] - r[112] <= 1
 mccormick3[113]: x[113] + u[113] - r[113] <= 1
 mccormick3[114]: x[114] + u[114] - r[114] <= 1
 mccormick3[115]: x[115] + u[115] - r[115] <= 1
 mccormick3[116]: x[116] + u[116] - r[116] <= 1
 mccormick3[117]: x[117] + u[117] - r[117] <= 1
 mccormick3[118]: x[118] + u[118] - r[118] <= 1
 mccormick3[119]: x[119] + u[119] - r[119] <= 1
 mccormick3[120]: x[120] + u[120] - r[120] <= 1
 mccormick3[121]: x[121] + u[121] - r[121] <= 1
 mccormick3[122]: x[122] + u[122] - r[122] <= 1
 mccormick3[123]: x[123] + u[123] - r[123] <= 1
 mccormick3[124]: x[124] + u[124] - r[124] <= 1
 mccormick3[125]: x[125] + u[125] - r[125] <= 1
 mccormick3[126]: x[126] + u[126] - r[126] <= 1
 mccormick3[127]: x[127] + u[127] - r[127] <= 1
 mccormick3[128]: x[128] + u[128] - r[128] <= 1
 mccormick3[129]: x[129] + u[129] - r[129] <= 1
 mccormick3[130]: x[130] + u[130] - r[130] <= 1
 mccormick3[131]: x[131] + u[131] - r[131] <= 1
 mccormick3[132]: x[132] + u[132] - r[132] <= 1
 mccormick3[133]: x[133] + u[133] - r[133] <= 1
 mccormick3[134]: x[134] + u[134] - r[134] <= 1
 mccormick3[135]: x[135] + u[135] - r[135] <= 1
 mccormick3[136]: x[136] + u[136] - r[136] <= 1
 mccormick3[137]: x[137] + u[137] - r[137] <= 1
 mccormick3[138]: x[138] + u[138] - r[138] <= 1
 mccormick3[139]: x[139] + u[139] - r[139] <= 1
Bounds
Binaries
 x[0] x[1] x[2] x[3] x[4] x[5] x[6] x[7] x[8] x[9] x[10] x[11] x[12] x[13]
 x[14] x[15] x[16] x[17] x[18] x[19] x[20] x[21] x[22] x[23] x[24] x[25]
 x[26] x[27] x[28] x[29] x[30] x[31] x[32] x[33] x[34] x[35] x[36] x[37]
 x[38] x[39] x[40] x[41] x[42] x[43] x[44] x[45] x[46] x[47] x[48] x[49]
 x[50] x[51] x[52] x[53] x[54] x[55] x[56] x[57] x[58] x[59] x[60] x[61]
 x[62] x[63] x[64] x[65] x[66] x[67] x[68] x[69] x[70] x[71] x[72] x[73]
 x[74] x[75] x[76] x[77] x[78] x[79] x[80] x[81] x[82] x[83] x[84] x[85]
 x[86] x[87] x[88] x[89] x[90] x[91] x[92] x[93] x[94] x[95] x[96] x[97]
 x[98] x[99] x[100] x[101] x[102] x[103] x[104] x[105] x[106] x[107] x[108]
 x[109] x[110] x[111] x[112] x[113] x[114] x[115] x[116] x[117] x[118]
 x[119] x[120] x[121] x[122] x[123] x[124] x[125] x[126] x[127] x[128]
 x[129] x[130] x[131] x[132] x[133] x[134] x[135] x[136] x[137] x[138]
 x[139] u[0] u[1] u[2] u[3] u[4] u[5] u[6] u[7] u[8] u[9] u[10] u[11] u[12]
 u[13] u[14] u[15] u[16] u[17] u[18] u[19] u[20] u[21] u[22] u[23] u[24]
 u[25] u[26] u[27] u[28] u[29] u[30] u[31] u[32] u[33] u[34] u[35] u[36]
 u[37] u[38] u[39] u[40] u[41] u[42] u[43] u[44] u[45] u[46] u[47] u[48]
 u[49] u[50] u[51] u[52] u[53] u[54] u[55] u[56] u[57] u[58] u[59] u[60]
 u[61] u[62] u[63] u[64] u[65] u[66] u[67] u[68] u[69] u[70] u[71] u[72]
 u[73] u[74] u[75] u[76] u[77] u[78] u[79] u[80] u[81] u[82] u[83] u[84]
 u[85] u[86] u[87] u[88] u[89] u[90] u[91] u[92] u[93] u[94] u[95] u[96]
 u[97] u[98] u[99] u[100] u[101] u[102] u[103] u[104] u[105] u[106] u[107]
 u[108] u[109] u[110] u[111] u[112] u[113] u[114] u[115] u[116] u[117]
 u[118] u[119] u[120] u[121] u[122] u[123] u[124] u[125] u[126] u[127]
 u[128] u[129] u[130] u[131] u[132] u[133] u[134] u[135] u[136] u[137]
 u[138] u[139] r[0] r[1] r[2] r[3] r[4] r[5] r[6] r[7] r[8] r[9] r[10]
 r[11] r[12] r[13] r[14] r[15] r[16] r[17] r[18] r[19] r[20] r[21] r[22]
 r[23] r[24] r[25] r[26] r[27] r[28] r[29] r[30] r[31] r[32] r[33] r[34]
 r[35] r[36] r[37] r[38] r[39] r[40] r[41] r[42] r[43] r[44] r[45] r[46]
 r[47] r[48] r[49] r[50] r[51] r[52] r[53] r[54] r[55] r[56] r[57] r[58]
 r[59] r[60] r[61] r[62] r[63] r[64] r[65] r[66] r[67] r[68] r[69] r[70]
 r[71] r[72] r[73] r[74] r[75] r[76] r[77] r[78] r[79] r[80] r[81] r[82]
 r[83] r[84] r[85] r[86] r[87] r[88] r[89] r[90] r[91] r[92] r[93] r[94]
 r[95] r[96] r[97] r[98] r[99] r[100] r[101] r[102] r[103] r[104] r[105]
 r[106] r[107] r[108] r[109] r[110] r[111] r[112] r[113] r[114] r[115]
 r[116] r[117] r[118] r[119] r[120] r[121] r[122] r[123] r[124] r[125]
 r[126] r[127] r[128] r[129] r[130] r[131] r[132] r[133] r[134] r[135]
 r[136] r[137] r[138] r[139]
End
