instances/knapsack/discrete_knapsack_uncertainty/knapsack_140_2.kp
4536
140
716

79 7.9 37
91 9.1 18
21 2.1 79
22 2.2 55
79 7.9 77
73 7.3 92
92 9.2 81
95 9.5 39
100 10.0 6
49 4.9 30
75 7.5 10
54 5.4 18
75 7.5 50
79 7.9 57
100 10.0 78
88 8.8 47
4 0.4 57
47 4.7 49
24 2.4 82
41 4.1 45
40 4.0 65
79 7.9 10
15 1.5 71
18 1.8 7
28 2.8 16
83 8.3 54
77 7.7 79
75 7.5 55
9 0.9 81
54 5.4 92
37 3.7 88
19 1.9 63
3 0.3 19
52 5.2 62
55 5.5 35
20 2.0 76
47 4.7 88
20 2.0 70
3 0.3 70
82 8.2 83
38 3.8 39
25 2.5 93
29 2.9 77
9 0.9 74
94 9.4 10
42 4.2 30
25 2.5 4
9 0.9 64
26 2.6 24
71 7.1 37
94 9.4 78
43 4.3 50
92 9.2 66
79 7.9 8
56 5.6 99
71 7.1 13
88 8.8 46
54 5.4 91
7 0.7 31
41 4.1 66
44 4.4 79
54 5.4 93
43 4.3 49
42 4.2 97
23 2.3 66
83 8.3 36
44 4.4 96
90 9.0 93
51 5.1 4
41 4.1 97
9 0.9 84
69 6.9 30
97 9.7 72
58 5.8 13
47 4.7 62
88 8.8 61
54 5.4 97
46 4.6 40
20 2.0 67
18 1.8 79
89 8.9 86
57 5.7 77
18 1.8 53
93 9.3 77
69 6.9 4
77 7.7 12
99 9.9 25
35 3.5 54
9 0.9 3
22 2.2 78
16 1.6 65
56 5.6 61
24 2.4 13
67 6.7 64
87 8.7 95
36 3.6 10
44 4.4 24
12 1.2 91
27 2.7 100
83 8.3 72
100 10.0 20
95 9.5 5
21 2.1 2
79 7.9 9
80 8.0 86
77 7.7 82
90 9.0 41
98 9.8 60
50 5.0 29
48 4.8 8
2 0.2 89
34 3.4 89
44 4.4 21
44 4.4 47
64 6.4 69
42 4.2 84
42 4.2 2
64 6.4 60
92 9.2 93
24 2.4 30
31 3.1 9
76 7.6 86
79 7.9 29
54 5.4 78
100 10.0 59
10 1.0 76
79 7.9 8
83 8.3 57
94 9.4 91
30 3.0 16
21 2.1 46
48 4.8 70
82 8.2 15
87 8.7 34
48 4.8 1
5 0.5 19
84 8.4 20
66 6.6 57
77 7.7 98
43 4.3 65

17612
721

[1.1643080297820434 3.7989413886837777 3.5811165660685385 3.3226757315555733 0.0977825844104949 0.18993775402419144 1.176346671559784 0.4948719690602066 3.383654611161221 4.637318185919038 4.099655036154113 4.92445803363375 2.8366491535646206 0.27526235379119424 3.668669280894399 3.290375561198986 1.2731252330729146 0.4255480370971515 4.533114284547441 1.3545223528090737 4.979865387766071 2.9637832987458252 2.355638506155493 0.49455640847273147 2.8645615465676726 4.858958153443344 3.6809845932365355 3.5235783655888175 5.032282870954295 1.2905288039728036 1.065357391388755 1.8944121926024182 2.66525190181954 4.571706784890599 0.8607092586951879 2.586539566571312 4.280070672405861 3.845833079261681 3.0349192555176976 2.0430321834592027 4.573385356650564 3.3619057170164153 3.8151310505356295 1.1572370468480087 4.484660416457466 4.9156622638684135 4.792304069872707 5.080785353259445 4.7457212718759365 5.090872684939864 3.6839769960936257 4.024815732367008 1.5523019699953877 4.864747015660322 3.550682218066852 2.880892364068343 1.011697445900577 4.631935419002617 4.374187699927722 4.804285871146355 2.6331517386246714 0.33646405655346356 2.0972073427160214 5.1091203672785355 3.915924220967545 2.1449062221610458 4.105014799659024 0.5577983348309727 2.196190166342174 5.134310994447326 0.8749425700699207 3.258119456875594 4.484049454089679 1.700106913028717 3.4309407035619914 3.3861099644047608 3.8191640749910745 2.9057268879233367 0.6089158432057382 4.223441446667046 3.005004577264287 0.42734715763679515 4.713849711145307 4.8816570405018505 1.749388683312675 4.91291007309199 2.3239478731864964 3.2038039960746993 0.9445369232116584 2.6227460320799287 2.5098953747297728 5.043882500333296 4.109381618707713 1.54063630388449 4.359903082505662 3.2784372093483807 2.1939412839316548 1.7462923254348384 1.968897595603367 4.225897059319072 4.940916453190637 4.44435128002652 3.291548116786334 1.5732244558120783 4.526947404020845 3.7359344069043248 2.050045870986919 4.533570042244364 2.626947134146533 2.5471993049492627 3.9557880068252573 3.7308598915650872 3.3621064396699287 5.077817726431467 2.8420912879433122 0.6426853543484968 0.3440328554553927 1.1865914090793868 3.42470297115589 3.0680358876667455 2.2737236478018263 3.1145372336467125 3.0477317945519506 4.503496352734967 2.522826998475598 1.7862929613560294 4.120136908266906 4.880694291332891 4.014865487094197 3.3126399528996866 2.3340889235542206 3.423678189724887 1.1163969240602114 1.936379951272807 3.7308217251832994 3.8315659479055437 3.549369128271223 1.611543966218064 0.4118180324706901 0.017720278071362547]

[85 41 51 60 9 95 42 97 98 79 97 96 97 61 62 22 26 69 22 99 74 29 21 60 98 41 55 85 31 92 23 29 25 98 89 54 1 66 25 24 40 23 79 99 16 100 39 91 84 77 84 93 90 25 10 49 6 84 53 83 34 56 61 52 13 29 2 84 77 83 31 91 55 56 97 50 40 44 70 20 99 27 20 87 79 43 61 73 35 72 94 30 62 29 77 86 70 42 61 97 62 93 15 9 2 27 16 12 4 70 48 28 6 78 70 60 52 22 94 30 9 26 61 16 70 28 89 1 40 76 39 34 44 45 54 63 38 100 35 65]
